c Primer Problema
c El force push sobre el repo github implica la desaprobacion de todo el TP
c
c En esta primera entrega se pide que busquen la mejor solucion posible y la suban a modelosuno.okapii.com
c En el repo github creen un archivo "entrega_1.txt", debe contener
c	impresion inicial del problema
c	ideas de como lo van a intentar resolver
c	comentarios sobre los cambios que hagan en el codigo a medida que intentan mejorar el resultado
c	comentarios finales
c	una hoja maximo
p edge 20 210
e 1 10
e 1 19
e 1 2
e 1 3
e 1 4
e 1 5
e 1 6
e 1 7
e 1 8
e 1 9
e 1 17
e 2 11
e 2 20
e 2 9
e 2 3
e 2 4
e 2 5
e 2 6
e 2 7
e 2 8
e 2 10
e 2 18
e 2 1
e 3 12
e 3 10
e 3 17
e 3 4
e 3 5
e 3 6
e 3 7
e 3 8
e 3 11
e 3 19
e 3 2
e 3 1
e 4 13
e 4 11
e 4 18
e 4 5
e 4 6
e 4 7
e 4 8
e 4 12
e 4 20
e 4 3
e 4 2
e 4 1
e 5 14
e 5 12
e 5 19
e 5 6
e 5 7
e 5 8
e 5 13
e 5 4
e 5 3
e 5 2
e 5 1
e 6 15
e 6 13
e 6 20
e 6 7
e 6 8
e 6 14
e 6 5
e 6 4
e 6 3
e 6 2
e 6 1
e 7 16
e 7 14
e 7 8
e 7 15
e 7 6
e 7 5
e 7 4
e 7 3
e 7 2
e 7 1
e 8 15
e 8 16
e 8 7
e 8 6
e 8 5
e 8 4
e 8 3
e 8 2
e 8 1
e 9 18
e 9 10
e 9 11
e 9 12
e 9 13
e 9 14
e 9 15
e 9 16
e 9 17
e 9 2
e 9 1
e 10 19
e 10 17
e 10 11
e 10 12
e 10 13
e 10 14
e 10 15
e 10 16
e 10 18
e 10 9
e 10 3
e 10 2
e 10 1
e 11 20
e 11 18
e 11 12
e 11 13
e 11 14
e 11 15
e 11 16
e 11 19
e 11 10
e 11 9
e 11 4
e 11 3
e 11 2
e 12 19
e 12 13
e 12 14
e 12 15
e 12 16
e 12 20
e 12 11
e 12 10
e 12 9
e 12 5
e 12 4
e 12 3
e 13 20
e 13 14
e 13 15
e 13 16
e 13 12
e 13 11
e 13 10
e 13 9
e 13 6
e 13 5
e 13 4
e 14 15
e 14 16
e 14 13
e 14 12
e 14 11
e 14 10
e 14 9
e 14 7
e 14 6
e 14 5
e 15 16
e 15 14
e 15 13
e 15 12
e 15 11
e 15 10
e 15 9
e 15 8
e 15 7
e 15 6
e 16 15
e 16 14
e 16 13
e 16 12
e 16 11
e 16 10
e 16 9
e 16 8
e 16 7
e 17 18
e 17 19
e 17 20
e 17 10
e 17 9
e 17 3
e 17 1
e 18 19
e 18 20
e 18 17
e 18 11
e 18 10
e 18 9
e 18 4
e 18 2
e 19 20
e 19 18
e 19 17
e 19 12
e 19 11
e 19 10
e 19 5
e 19 3
e 19 1
e 20 19
e 20 18
e 20 17
e 20 13
e 20 12
e 20 11
e 20 6
e 20 4
e 20 2
n 1 8
n 2 10
n 3 9
n 4 7
n 5 3
n 6 9
n 7 10
n 8 2
n 9 9
n 10 8
n 11 6
n 12 9
n 13 5
n 14 1
n 15 5
n 16 9
n 17 10
n 18 4
n 19 4
n 20 5